BAYES
625
2 2 2 2 2 2 2 2 2 2 2 2 2 2 2 2 2 2 2 2 2 2 2 2 2 2 2 2 2 2 2 2 2 2 2 2 2 2 2 2 2 2 2 2 2 2 2 2 2 2 2 2 2 2 2 2 2 2 2 2 2 2 2 2 2 2 2 2 2 2 2 2 2 2 2 2 2 2 2 2 2 2 2 2 2 2 2 2 2 2 2 2 2 2 2 2 2 2 2 2 2 2 2 2 2 2 2 2 2 2 2 2 2 2 2 2 2 2 2 2 2 2 2 2 2 2 2 2 2 2 2 2 2 2 2 2 2 2 2 2 2 2 2 2 2 2 2 2 2 2 2 2 2 2 2 2 2 2 2 2 2 2 2 2 2 2 2 2 2 2 2 2 2 2 2 2 2 2 2 2 2 2 2 2 2 2 2 2 2 2 2 2 2 2 2 2 2 2 2 2 2 2 2 2 2 2 2 2 2 2 2 2 2 2 2 2 2 2 2 2 2 2 2 2 2 2 2 2 2 2 2 2 2 2 2 2 2 2 2 2 2 2 2 2 2 2 2 2 2 2 2 2 2 2 2 2 2 2 2 2 2 2 2 2 2 2 2 2 2 2 2 2 2 2 2 2 2 2 2 2 2 2 2 2 2 2 2 2 2 2 2 2 2 2 2 2 2 2 2 2 2 2 2 2 2 2 2 2 2 2 2 2 2 2 2 2 2 2 2 2 2 2 2 2 2 2 2 2 2 2 2 2 2 2 2 2 2 2 2 2 2 2 2 2 2 2 2 2 2 2 2 2 2 2 2 2 2 2 2 2 2 2 2 2 2 2 2 2 2 2 2 2 2 2 2 2 2 2 2 2 2 2 2 2 2 2 2 2 2 2 2 2 2 2 2 2 2 2 2 2 2 2 2 2 2 2 2 2 2 2 2 2 2 2 2 2 2 2 2 2 2 2 2 2 2 2 2 2 2 2 2 2 2 2 2 2 2 2 2 2 2 2 2 2 2 2 2 2 2 2 2 2 2 2 2 2 2 2 2 2 2 2 2 2 2 2 2 2 2 2 2 2 2 2 2 2 2 2 2 2 2 2 2 2 2 2 2 2 2 2 2 2 2 2 2 2 2 2 2 2 2 2 2 2 2 2 2 2 2 2 2 2 2 2 2 2 2 2 2 2 2 2 2 2 2 2 2 2 2 2 2 2 2 2 2 2 2 2 2 2 2 2 2 2 2 2 2 2 2 2 2 2 2 2 2 2 2 2 2 2 2 2 2 2 2 2 2 2 2 2 2 2 2 2 2 2 2 2 2 2 2 2 2 2 2 2 2 2 2 2 2 2 2 2 2 2 2 2 2 2 2 2 2 2 2 2 2 2 2 2 2 2 2 2 2 2 2 2 2 2 2 2 2 2 2
625
3 1 25 0
3 2 26 1
3 3 27 2
3 4 28 3
3 5 29 4
3 6 30 5
3 7 31 6
3 8 32 7
3 9 33 8
3 10 34 9
3 11 35 10
3 12 36 11
3 13 37 12
3 14 38 13
3 15 39 14
3 16 40 15
3 17 41 16
3 18 42 17
3 19 43 18
3 20 44 19
3 21 45 20
3 22 46 21
3 23 47 22
3 24 48 23
2 25 24
3 26 50 25
3 27 51 26
3 28 52 27
3 29 53 28
3 30 54 29
3 31 55 30
3 32 56 31
3 33 57 32
3 34 58 33
3 35 59 34
3 36 60 35
3 37 61 36
3 38 62 37
3 39 63 38
3 40 64 39
3 41 65 40
3 42 66 41
3 43 67 42
3 44 68 43
3 45 69 44
3 46 70 45
3 47 71 46
3 48 72 47
3 49 73 48
2 50 49
3 51 75 50
3 52 76 51
3 53 77 52
3 54 78 53
3 55 79 54
3 56 80 55
3 57 81 56
3 58 82 57
3 59 83 58
3 60 84 59
3 61 85 60
3 62 86 61
3 63 87 62
3 64 88 63
3 65 89 64
3 66 90 65
3 67 91 66
3 68 92 67
3 69 93 68
3 70 94 69
3 71 95 70
3 72 96 71
3 73 97 72
3 74 98 73
2 75 74
3 76 100 75
3 77 101 76
3 78 102 77
3 79 103 78
3 80 104 79
3 81 105 80
3 82 106 81
3 83 107 82
3 84 108 83
3 85 109 84
3 86 110 85
3 87 111 86
3 88 112 87
3 89 113 88
3 90 114 89
3 91 115 90
3 92 116 91
3 93 117 92
3 94 118 93
3 95 119 94
3 96 120 95
3 97 121 96
3 98 122 97
3 99 123 98
2 100 99
3 101 125 100
3 102 126 101
3 103 127 102
3 104 128 103
3 105 129 104
3 106 130 105
3 107 131 106
3 108 132 107
3 109 133 108
3 110 134 109
3 111 135 110
3 112 136 111
3 113 137 112
3 114 138 113
3 115 139 114
3 116 140 115
3 117 141 116
3 118 142 117
3 119 143 118
3 120 144 119
3 121 145 120
3 122 146 121
3 123 147 122
3 124 148 123
2 125 124
3 126 150 125
3 127 151 126
3 128 152 127
3 129 153 128
3 130 154 129
3 131 155 130
3 132 156 131
3 133 157 132
3 134 158 133
3 135 159 134
3 136 160 135
3 137 161 136
3 138 162 137
3 139 163 138
3 140 164 139
3 141 165 140
3 142 166 141
3 143 167 142
3 144 168 143
3 145 169 144
3 146 170 145
3 147 171 146
3 148 172 147
3 149 173 148
2 150 149
3 151 175 150
3 152 176 151
3 153 177 152
3 154 178 153
3 155 179 154
3 156 180 155
3 157 181 156
3 158 182 157
3 159 183 158
3 160 184 159
3 161 185 160
3 162 186 161
3 163 187 162
3 164 188 163
3 165 189 164
3 166 190 165
3 167 191 166
3 168 192 167
3 169 193 168
3 170 194 169
3 171 195 170
3 172 196 171
3 173 197 172
3 174 198 173
2 175 174
3 176 200 175
3 177 201 176
3 178 202 177
3 179 203 178
3 180 204 179
3 181 205 180
3 182 206 181
3 183 207 182
3 184 208 183
3 185 209 184
3 186 210 185
3 187 211 186
3 188 212 187
3 189 213 188
3 190 214 189
3 191 215 190
3 192 216 191
3 193 217 192
3 194 218 193
3 195 219 194
3 196 220 195
3 197 221 196
3 198 222 197
3 199 223 198
2 200 199
3 201 225 200
3 202 226 201
3 203 227 202
3 204 228 203
3 205 229 204
3 206 230 205
3 207 231 206
3 208 232 207
3 209 233 208
3 210 234 209
3 211 235 210
3 212 236 211
3 213 237 212
3 214 238 213
3 215 239 214
3 216 240 215
3 217 241 216
3 218 242 217
3 219 243 218
3 220 244 219
3 221 245 220
3 222 246 221
3 223 247 222
3 224 248 223
2 225 224
3 226 250 225
3 227 251 226
3 228 252 227
3 229 253 228
3 230 254 229
3 231 255 230
3 232 256 231
3 233 257 232
3 234 258 233
3 235 259 234
3 236 260 235
3 237 261 236
3 238 262 237
3 239 263 238
3 240 264 239
3 241 265 240
3 242 266 241
3 243 267 242
3 244 268 243
3 245 269 244
3 246 270 245
3 247 271 246
3 248 272 247
3 249 273 248
2 250 249
3 251 275 250
3 252 276 251
3 253 277 252
3 254 278 253
3 255 279 254
3 256 280 255
3 257 281 256
3 258 282 257
3 259 283 258
3 260 284 259
3 261 285 260
3 262 286 261
3 263 287 262
3 264 288 263
3 265 289 264
3 266 290 265
3 267 291 266
3 268 292 267
3 269 293 268
3 270 294 269
3 271 295 270
3 272 296 271
3 273 297 272
3 274 298 273
2 275 274
3 276 300 275
3 277 301 276
3 278 302 277
3 279 303 278
3 280 304 279
3 281 305 280
3 282 306 281
3 283 307 282
3 284 308 283
3 285 309 284
3 286 310 285
3 287 311 286
3 288 312 287
3 289 313 288
3 290 314 289
3 291 315 290
3 292 316 291
3 293 317 292
3 294 318 293
3 295 319 294
3 296 320 295
3 297 321 296
3 298 322 297
3 299 323 298
2 300 299
3 301 325 300
3 302 326 301
3 303 327 302
3 304 328 303
3 305 329 304
3 306 330 305
3 307 331 306
3 308 332 307
3 309 333 308
3 310 334 309
3 311 335 310
3 312 336 311
3 313 337 312
3 314 338 313
3 315 339 314
3 316 340 315
3 317 341 316
3 318 342 317
3 319 343 318
3 320 344 319
3 321 345 320
3 322 346 321
3 323 347 322
3 324 348 323
2 325 324
3 326 350 325
3 327 351 326
3 328 352 327
3 329 353 328
3 330 354 329
3 331 355 330
3 332 356 331
3 333 357 332
3 334 358 333
3 335 359 334
3 336 360 335
3 337 361 336
3 338 362 337
3 339 363 338
3 340 364 339
3 341 365 340
3 342 366 341
3 343 367 342
3 344 368 343
3 345 369 344
3 346 370 345
3 347 371 346
3 348 372 347
3 349 373 348
2 350 349
3 351 375 350
3 352 376 351
3 353 377 352
3 354 378 353
3 355 379 354
3 356 380 355
3 357 381 356
3 358 382 357
3 359 383 358
3 360 384 359
3 361 385 360
3 362 386 361
3 363 387 362
3 364 388 363
3 365 389 364
3 366 390 365
3 367 391 366
3 368 392 367
3 369 393 368
3 370 394 369
3 371 395 370
3 372 396 371
3 373 397 372
3 374 398 373
2 375 374
3 376 400 375
3 377 401 376
3 378 402 377
3 379 403 378
3 380 404 379
3 381 405 380
3 382 406 381
3 383 407 382
3 384 408 383
3 385 409 384
3 386 410 385
3 387 411 386
3 388 412 387
3 389 413 388
3 390 414 389
3 391 415 390
3 392 416 391
3 393 417 392
3 394 418 393
3 395 419 394
3 396 420 395
3 397 421 396
3 398 422 397
3 399 423 398
2 400 399
3 401 425 400
3 402 426 401
3 403 427 402
3 404 428 403
3 405 429 404
3 406 430 405
3 407 431 406
3 408 432 407
3 409 433 408
3 410 434 409
3 411 435 410
3 412 436 411
3 413 437 412
3 414 438 413
3 415 439 414
3 416 440 415
3 417 441 416
3 418 442 417
3 419 443 418
3 420 444 419
3 421 445 420
3 422 446 421
3 423 447 422
3 424 448 423
2 425 424
3 426 450 425
3 427 451 426
3 428 452 427
3 429 453 428
3 430 454 429
3 431 455 430
3 432 456 431
3 433 457 432
3 434 458 433
3 435 459 434
3 436 460 435
3 437 461 436
3 438 462 437
3 439 463 438
3 440 464 439
3 441 465 440
3 442 466 441
3 443 467 442
3 444 468 443
3 445 469 444
3 446 470 445
3 447 471 446
3 448 472 447
3 449 473 448
2 450 449
3 451 475 450
3 452 476 451
3 453 477 452
3 454 478 453
3 455 479 454
3 456 480 455
3 457 481 456
3 458 482 457
3 459 483 458
3 460 484 459
3 461 485 460
3 462 486 461
3 463 487 462
3 464 488 463
3 465 489 464
3 466 490 465
3 467 491 466
3 468 492 467
3 469 493 468
3 470 494 469
3 471 495 470
3 472 496 471
3 473 497 472
3 474 498 473
2 475 474
3 476 500 475
3 477 501 476
3 478 502 477
3 479 503 478
3 480 504 479
3 481 505 480
3 482 506 481
3 483 507 482
3 484 508 483
3 485 509 484
3 486 510 485
3 487 511 486
3 488 512 487
3 489 513 488
3 490 514 489
3 491 515 490
3 492 516 491
3 493 517 492
3 494 518 493
3 495 519 494
3 496 520 495
3 497 521 496
3 498 522 497
3 499 523 498
2 500 499
3 501 525 500
3 502 526 501
3 503 527 502
3 504 528 503
3 505 529 504
3 506 530 505
3 507 531 506
3 508 532 507
3 509 533 508
3 510 534 509
3 511 535 510
3 512 536 511
3 513 537 512
3 514 538 513
3 515 539 514
3 516 540 515
3 517 541 516
3 518 542 517
3 519 543 518
3 520 544 519
3 521 545 520
3 522 546 521
3 523 547 522
3 524 548 523
2 525 524
3 526 550 525
3 527 551 526
3 528 552 527
3 529 553 528
3 530 554 529
3 531 555 530
3 532 556 531
3 533 557 532
3 534 558 533
3 535 559 534
3 536 560 535
3 537 561 536
3 538 562 537
3 539 563 538
3 540 564 539
3 541 565 540
3 542 566 541
3 543 567 542
3 544 568 543
3 545 569 544
3 546 570 545
3 547 571 546
3 548 572 547
3 549 573 548
2 550 549
3 551 575 550
3 552 576 551
3 553 577 552
3 554 578 553
3 555 579 554
3 556 580 555
3 557 581 556
3 558 582 557
3 559 583 558
3 560 584 559
3 561 585 560
3 562 586 561
3 563 587 562
3 564 588 563
3 565 589 564
3 566 590 565
3 567 591 566
3 568 592 567
3 569 593 568
3 570 594 569
3 571 595 570
3 572 596 571
3 573 597 572
3 574 598 573
2 575 574
3 576 600 575
3 577 601 576
3 578 602 577
3 579 603 578
3 580 604 579
3 581 605 580
3 582 606 581
3 583 607 582
3 584 608 583
3 585 609 584
3 586 610 585
3 587 611 586
3 588 612 587
3 589 613 588
3 590 614 589
3 591 615 590
3 592 616 591
3 593 617 592
3 594 618 593
3 595 619 594
3 596 620 595
3 597 621 596
3 598 622 597
3 599 623 598
2 600 599
2 625 600
2 626 601
2 627 602
2 628 603
2 629 604
2 630 605
2 631 606
2 632 607
2 633 608
2 634 609
2 635 610
2 636 611
2 637 612
2 638 613
2 639 614
2 640 615
2 641 616
2 642 617
2 643 618
2 644 619
2 645 620
2 646 621
2 647 622
2 648 623
1  624
8
0 1 1 0 1 0 1 0
8
1 0 1 0 1 0 1 0
8
1 0 0 1 0 1 1 0
8
0.5195836610177667 0.4804163389822335 0.47668209770819137 0.5233179022918086 0.4866534727476711 0.5133465272523289 0.428095440861535 0.571904559138465
8
0.41673950572260093 0.5832604942773991 0.5745886431059731 0.4254113568940269 0.48927796165439785 0.5107220383456021 0.5771546216594855 0.42284537834051455
8
1 0 0 1 0 1 1 0
8
0.7842500574247495 0.21574994257525043 0.3137684582154124 0.6862315417845876 0.6462705015765324 0.3537294984234675 0.9902404588561984 0.00975954114380165
8
0 1 0 1 0 1 0 1
8
1 0 1 0 1 0 1 0
8
0 1 1 0 0 1 0 1
8
0 1 0 1 0 1 0 1
8
1 0 1 0 0 1 1 0
8
0 1 0 1 0 1 0 1
8
0.4299089809189179 0.5700910190810822 0.36663180350647173 0.6333681964935283 0.7438652493709855 0.25613475062901453 0.6653101484987543 0.33468985150124586
8
0 1 1 0 0 1 0 1
8
0 1 1 0 1 0 1 0
8
0 1 0 1 0 1 1 0
8
0 1 0 1 1 0 1 0
8
0 1 1 0 1 0 0 1
8
0.4341158764383472 0.5658841235616527 0.5813282626294317 0.4186717373705682 0.5452370854847135 0.4547629145152865 0.8589052557030162 0.1410947442969838
8
0 1 1 0 0 1 0 1
8
0.02532086960764458 0.9746791303923554 0.39611995721980064 0.6038800427801994 0.7615966326079111 0.23840336739208906 0.48386280851911334 0.5161371914808867
8
0 1 0 1 0 1 0 1
8
1 0 1 0 1 0 0 1
4
0 1 0 1
8
1 0 1 0 0 1 1 0
8
0.41925832363793314 0.5807416763620669 0.7421138823432089 0.25788611765679115 0.9019127305382825 0.09808726946171759 0.053903423339028506 0.9460965766609715
8
1 0 1 0 0 1 0 1
8
1 0 0 1 1 0 0 1
8
0 1 0 1 0 1 1 0
8
0 1 0 1 0 1 0 1
8
0 1 1 0 0 1 0 1
8
1 0 1 0 1 0 0 1
8
0 1 1 0 1 0 0 1
8
1 0 1 0 0 1 0 1
8
1 0 0 1 0 1 0 1
8
1 0 1 0 1 0 0 1
8
0 1 0 1 0 1 0 1
8
1 0 0 1 1 0 0 1
8
1 0 1 0 1 0 1 0
8
1 0 1 0 1 0 1 0
8
0 1 0 1 1 0 0 1
8
1 0 0 1 1 0 1 0
8
1 0 0 1 1 0 1 0
8
0 1 1 0 0 1 0 1
8
1 0 1 0 0 1 1 0
8
0 1 1 0 0 1 0 1
8
1 0 0 1 0 1 0 1
8
1 0 0 1 0 1 1 0
4
0.730282472778282 0.26971752722171805 0.6231746679040391 0.37682533209596086
8
1 0 1 0 1 0 1 0
8
1 0 0 1 1 0 1 0
8
1 0 0 1 0 1 0 1
8
1 0 1 0 0 1 1 0
8
0 1 0 1 1 0 1 0
8
0 1 1 0 1 0 1 0
8
1 0 0 1 1 0 0 1
8
0.3998835144592954 0.6001164855407046 0.8666465234828304 0.1333534765171695 0.2804530936660738 0.7195469063339262 0.46781560093047864 0.5321843990695213
8
0 1 1 0 1 0 1 0
8
1 0 1 0 1 0 1 0
8
0 1 0 1 0 1 0 1
8
0 1 1 0 1 0 0 1
8
1 0 1 0 0 1 1 0
8
0 1 1 0 1 0 1 0
8
0 1 0 1 1 0 0 1
8
1 0 1 0 0 1 0 1
8
1 0 0 1 1 0 0 1
8
0 1 0 1 1 0 0 1
8
1 0 0 1 1 0 1 0
8
0.48163441894030523 0.5183655810596948 0.4034913215885503 0.5965086784114496 0.47058653350786095 0.529413466492139 0.3549461929321859 0.6450538070678141
8
1 0 1 0 0 1 1 0
8
0 1 1 0 1 0 1 0
8
1 0 0 1 1 0 0 1
8
0 1 0 1 1 0 0 1
4
1 0 1 0
8
1 0 0 1 1 0 0 1
8
1 0 1 0 0 1 0 1
8
1 0 1 0 0 1 1 0
8
0 1 1 0 1 0 0 1
8
0.12600011279859427 0.8739998872014059 0.4452618340696674 0.5547381659303326 0.47456973245948114 0.5254302675405189 0.8920214752532939 0.1079785247467061
8
1 0 1 0 0 1 0 1
8
0 1 1 0 1 0 1 0
8
1 0 1 0 0 1 0 1
8
1 0 1 0 0 1 1 0
8
1 0 0 1 0 1 0 1
8
1 0 1 0 1 0 1 0
8
0 1 1 0 0 1 0 1
8
1 0 0 1 1 0 1 0
8
1 0 0 1 0 1 0 1
8
1 0 0 1 0 1 1 0
8
0 1 0 1 1 0 0 1
8
1 0 1 0 1 0 1 0
8
0.8317590968125808 0.16824090318741938 0.43916750852502173 0.5608324914749783 0.44069855299175387 0.5593014470082461 0.6169764164815704 0.3830235835184296
8
1 0 0 1 1 0 1 0
8
1 0 1 0 0 1 1 0
8
0 1 1 0 0 1 0 1
8
1 0 1 0 1 0 0 1
8
0.42699595503808563 0.5730040449619144 0.826208787203204 0.173791212796796 0.44007881670909077 0.5599211832909093 0.3276151226697102 0.6723848773302897
8
1 0 0 1 0 1 1 0
4
1 0 1 0
8
0 1 0 1 0 1 1 0
8
1 0 1 0 0 1 0 1
8
0 1 0 1 0 1 1 0
8
1 0 0 1 1 0 0 1
8
0 1 0 1 0 1 1 0
8
1 0 1 0 0 1 0 1
8
0 1 1 0 1 0 0 1
8
0 1 0 1 1 0 0 1
8
0 1 0 1 0 1 0 1
8
1 0 1 0 0 1 0 1
8
0 1 1 0 1 0 1 0
8
0.20396451423109233 0.7960354857689077 0.44079304524945434 0.5592069547505456 0.23068279491350613 0.7693172050864938 0.5822960940539665 0.4177039059460335
8
1 0 1 0 0 1 1 0
8
0 1 0 1 0 1 0 1
8
0.34750810387747666 0.6524918961225233 0.9914034752442126 0.00859652475578742 0.5155913453815283 0.48440865461847177 0.6380661795582454 0.3619338204417546
8
0 1 1 0 1 0 1 0
8
0 1 0 1 0 1 0 1
8
0 1 1 0 1 0 1 0
8
0 1 0 1 0 1 1 0
8
0.364840615023927 0.6351593849760732 0.707910575311882 0.29208942468811805 0.5986668495644158 0.4013331504355841 0.6518482918986584 0.3481517081013415
8
0 1 1 0 1 0 0 1
8
0 1 0 1 0 1 1 0
8
0 1 1 0 1 0 0 1
8
1 0 1 0 1 0 1 0
4
1 0 1 0
8
0 1 1 0 1 0 1 0
8
0 1 0 1 1 0 0 1
8
0 1 1 0 1 0 1 0
8
0 1 0 1 1 0 1 0
8
0 1 0 1 1 0 1 0
8
1 0 0 1 0 1 1 0
8
1 0 0 1 1 0 0 1
8
0 1 0 1 1 0 1 0
8
0 1 1 0 0 1 1 0
8
1 0 0 1 0 1 0 1
8
0 1 0 1 1 0 0 1
8
1 0 1 0 0 1 0 1
8
1 0 1 0 0 1 0 1
8
1 0 1 0 0 1 1 0
8
0 1 1 0 0 1 1 0
8
0.3281474892704581 0.6718525107295419 0.3033239738876895 0.6966760261123105 0.6103308670647126 0.38966913293528743 0.5074125614019422 0.4925874385980577
8
0 1 1 0 1 0 0 1
8
0 1 0 1 0 1 0 1
8
1 0 1 0 0 1 1 0
8
1 0 0 1 0 1 1 0
8
0 1 1 0 0 1 1 0
8
0 1 1 0 0 1 1 0
8
0 1 1 0 0 1 0 1
8
0 1 0 1 0 1 1 0
4
1 0 1 0
8
1 0 1 0 0 1 0 1
8
0 1 1 0 1 0 0 1
8
1 0 1 0 1 0 0 1
8
0 1 1 0 1 0 1 0
8
0 1 1 0 1 0 1 0
8
0 1 1 0 1 0 0 1
8
1 0 0 1 1 0 1 0
8
0 1 1 0 1 0 1 0
8
0 1 1 0 0 1 0 1
8
1 0 0 1 1 0 0 1
8
0 1 0 1 1 0 0 1
8
1 0 1 0 0 1 0 1
8
1 0 1 0 0 1 1 0
8
0 1 0 1 0 1 0 1
8
0 1 1 0 0 1 1 0
8
1 0 0 1 1 0 0 1
8
0 1 1 0 1 0 0 1
8
1 0 0 1 1 0 1 0
8
1 0 0 1 1 0 1 0
8
0 1 0 1 1 0 1 0
8
1 0 0 1 1 0 0 1
8
1 0 0 1 1 0 1 0
8
0 1 1 0 1 0 0 1
8
0.6004654718084238 0.3995345281915762 0.29714029417919974 0.7028597058208003 0.12822190785940113 0.8717780921405989 0.17367270671687565 0.8263272932831245
4
1 0 1 0
8
0 1 1 0 0 1 1 0
8
0.8706321532797902 0.12936784672020984 0.31139749933683725 0.6886025006631628 0.50637449380973 0.49362550619026996 0.09739890450628835 0.9026010954937116
8
1 0 1 0 0 1 1 0
8
1 0 1 0 0 1 1 0
8
1 0 0 1 0 1 0 1
8
1 0 0 1 0 1 1 0
8
0 1 0 1 0 1 0 1
8
0 1 1 0 0 1 1 0
8
1 0 1 0 1 0 1 0
8
1 0 1 0 1 0 0 1
8
0.7746394577654875 0.22536054223451252 0.4564961576095 0.5435038423905 0.42552862846303235 0.5744713715369677 0.6837620012619564 0.31623799873804365
8
1 0 1 0 0 1 1 0
8
1 0 1 0 0 1 1 0
8
1 0 1 0 0 1 1 0
8
0.5247296483893195 0.47527035161068054 0.6466034554000827 0.35339654459991726 0.6322085339533079 0.3677914660466921 0.45360473329681517 0.546395266703185
8
0.5962396633077752 0.40376033669222483 0.2174612310122384 0.7825387689877616 0.8112320427627044 0.18876795723729567 0.5412087346607932 0.45879126533920683
8
0 1 0 1 1 0 1 0
8
0 1 0 1 1 0 0 1
8
1 0 1 0 1 0 0 1
8
0 1 0 1 1 0 0 1
8
0 1 1 0 1 0 1 0
8
0 1 1 0 0 1 0 1
8
1 0 1 0 1 0 1 0
8
0 1 0 1 0 1 0 1
4
0 1 1 0
8
1 0 0 1 0 1 1 0
8
0.08270970471594133 0.9172902952840587 0.5655769147063013 0.4344230852936987 0.7095003443554337 0.2904996556445663 0.31419224118545386 0.6858077588145461
8
1 0 1 0 1 0 0 1
8
0 1 0 1 1 0 0 1
8
0 1 0 1 1 0 0 1
8
0 1 1 0 0 1 0 1
8
1 0 1 0 1 0 1 0
8
1 0 0 1 1 0 1 0
8
0 1 1 0 0 1 0 1
8
0 1 0 1 1 0 0 1
8
0 1 1 0 1 0 0 1
8
1 0 0 1 0 1 0 1
8
0 1 0 1 1 0 1 0
8
1 0 1 0 1 0 0 1
8
0 1 0 1 1 0 0 1
8
0 1 0 1 1 0 0 1
8
1 0 1 0 0 1 1 0
8
1 0 0 1 1 0 1 0
8
0.4576853757765278 0.5423146242234722 0.49290675900496467 0.5070932409950353 0.09331462703545818 0.9066853729645419 0.9710333400086656 0.02896665999133444
8
1 0 0 1 1 0 0 1
8
1 0 0 1 0 1 0 1
8
1 0 1 0 1 0 1 0
8
0 1 1 0 0 1 0 1
8
0 1 1 0 0 1 0 1
4
0 1 1 0
8
0 1 0 1 1 0 0 1
8
1 0 1 0 0 1 0 1
8
1 0 0 1 0 1 1 0
8
0 1 1 0 0 1 1 0
8
0 1 0 1 1 0 0 1
8
1 0 1 0 1 0 1 0
8
0 1 0 1 0 1 1 0
8
1 0 1 0 1 0 0 1
8
1 0 0 1 1 0 1 0
8
1 0 0 1 0 1 1 0
8
0 1 1 0 1 0 0 1
8
1 0 1 0 1 0 1 0
8
1 0 1 0 1 0 1 0
8
0 1 1 0 1 0 0 1
8
1 0 0 1 0 1 1 0
8
1 0 1 0 1 0 1 0
8
0 1 1 0 1 0 1 0
8
1 0 0 1 0 1 0 1
8
1 0 0 1 0 1 1 0
8
0 1 1 0 1 0 1 0
8
0 1 1 0 1 0 0 1
8
0 1 1 0 0 1 1 0
8
1 0 0 1 1 0 0 1
8
1 0 0 1 0 1 0 1
4
0 1 0 1
8
0 1 1 0 0 1 0 1
8
0 1 1 0 0 1 0 1
8
0 1 1 0 0 1 1 0
8
0 1 1 0 0 1 0 1
8
1 0 1 0 1 0 0 1
8
0 1 1 0 0 1 1 0
8
1 0 0 1 0 1 0 1
8
0 1 1 0 1 0 1 0
8
1 0 1 0 0 1 1 0
8
0 1 0 1 1 0 0 1
8
1 0 1 0 1 0 0 1
8
1 0 1 0 1 0 0 1
8
1 0 1 0 1 0 1 0
8
0.722716360048694 0.277283639951306 0.5230387239950679 0.47696127600493216 0.36052252779462235 0.6394774722053778 0.5068041402438344 0.49319585975616564
8
0 1 1 0 1 0 0 1
8
0 1 0 1 0 1 0 1
8
0 1 0 1 0 1 1 0
8
0 1 1 0 1 0 1 0
8
1 0 1 0 1 0 1 0
8
0 1 0 1 1 0 0 1
8
1 0 1 0 0 1 1 0
8
0 1 0 1 1 0 1 0
8
1 0 1 0 1 0 0 1
8
1 0 0 1 1 0 1 0
4
0 1 1 0
8
0.7212432265714144 0.2787567734285855 0.20996402254355573 0.7900359774564443 0.17020368851199386 0.8297963114880061 0.17792149611134778 0.8220785038886522
8
0 1 1 0 0 1 0 1
8
1 0 0 1 0 1 0 1
8
1 0 1 0 0 1 1 0
8
0 1 0 1 1 0 1 0
8
1 0 1 0 0 1 0 1
8
1 0 0 1 0 1 0 1
8
1 0 0 1 0 1 1 0
8
1 0 1 0 0 1 0 1
8
1 0 1 0 1 0 0 1
8
1 0 1 0 1 0 0 1
8
1 0 1 0 0 1 1 0
8
0.536761147409214 0.463238852590786 0.46954575689744943 0.5304542431025505 0.5830141924862549 0.41698580751374514 0.16086695021107014 0.8391330497889299
8
1 0 1 0 0 1 1 0
8
1 0 0 1 0 1 0 1
8
0 1 0 1 0 1 1 0
8
1 0 1 0 0 1 1 0
8
0 1 1 0 0 1 0 1
8
0.3647567397198683 0.6352432602801317 0.8566522105365939 0.1433477894634061 0.9435629216208196 0.05643707837918046 0.5061815533630921 0.4938184466369079
8
0 1 0 1 0 1 1 0
8
1 0 1 0 1 0 0 1
8
1 0 0 1 0 1 1 0
8
0 1 0 1 1 0 1 0
8
0 1 0 1 0 1 0 1
4
1 0 0 1
8
1 0 1 0 0 1 0 1
8
0 1 0 1 0 1 1 0
8
0 1 1 0 1 0 1 0
8
1 0 0 1 0 1 1 0
8
0 1 1 0 0 1 0 1
8
1 0 0 1 1 0 1 0
8
1 0 1 0 1 0 0 1
8
0 1 0 1 0 1 0 1
8
1 0 0 1 0 1 1 0
8
1 0 0 1 1 0 1 0
8
0.3295454618255899 0.67045453817441 0.647087231408596 0.352912768591404 0.6420158256802561 0.357984174319744 0.621773117425056 0.37822688257494386
8
0 1 1 0 1 0 1 0
8
1 0 1 0 1 0 1 0
8
0 1 0 1 0 1 0 1
8
0 1 0 1 1 0 1 0
8
0 1 0 1 1 0 0 1
8
0.18568245919219165 0.8143175408078084 0.9978289851171372 0.0021710148828627336 0.9896902412006235 0.010309758799376425 0.2216059461718474 0.7783940538281526
8
0 1 1 0 1 0 0 1
8
1 0 1 0 1 0 0 1
8
1 0 1 0 1 0 1 0
8
0 1 1 0 1 0 0 1
8
1 0 0 1 1 0 0 1
8
0 1 1 0 0 1 1 0
8
1 0 0 1 1 0 1 0
4
0 1 0 1
8
1 0 1 0 1 0 0 1
8
1 0 1 0 1 0 0 1
8
1 0 0 1 0 1 0 1
8
0 1 0 1 0 1 1 0
8
1 0 1 0 1 0 1 0
8
0.7879322239561983 0.21206777604380167 0.5242838418163229 0.475716158183677 0.3200484814171826 0.6799515185828173 0.31591982872521523 0.6840801712747847
8
1 0 1 0 0 1 0 1
8
1 0 1 0 1 0 1 0
8
1 0 1 0 1 0 0 1
8
0 1 1 0 1 0 0 1
8
0 1 0 1 1 0 1 0
8
0 1 1 0 1 0 0 1
8
0 1 1 0 1 0 0 1
8
1 0 1 0 1 0 1 0
8
1 0 0 1 0 1 0 1
8
1 0 1 0 0 1 0 1
8
1 0 0 1 0 1 0 1
8
1 0 1 0 0 1 0 1
8
1 0 0 1 0 1 0 1
8
1 0 0 1 0 1 0 1
8
0 1 0 1 1 0 0 1
8
1 0 1 0 1 0 0 1
8
1 0 0 1 1 0 0 1
8
0 1 1 0 0 1 1 0
4
0 1 1 0
8
0 1 0 1 1 0 0 1
8
1 0 1 0 1 0 1 0
8
0 1 1 0 1 0 0 1
8
1 0 1 0 1 0 0 1
8
0.14895044542537464 0.8510495545746254 0.4796190732268953 0.5203809267731047 0.28594870746170575 0.7140512925382941 0.5136519151630441 0.4863480848369559
8
1 0 0 1 0 1 1 0
8
0 1 1 0 0 1 1 0
8
0 1 1 0 0 1 0 1
8
0 1 1 0 1 0 1 0
8
0 1 0 1 0 1 0 1
8
0 1 1 0 1 0 0 1
8
1 0 1 0 1 0 0 1
8
1 0 0 1 0 1 0 1
8
0 1 1 0 1 0 0 1
8
0 1 1 0 0 1 0 1
8
0 1 0 1 1 0 0 1
8
0.3957505378432634 0.6042494621567366 0.5344307515722129 0.4655692484277871 0.8385866204725339 0.1614133795274662 0.4667317790586909 0.5332682209413091
8
0 1 1 0 1 0 1 0
8
1 0 1 0 1 0 1 0
8
1 0 0 1 1 0 0 1
8
0 1 1 0 0 1 0 1
8
0 1 1 0 1 0 1 0
8
0 1 0 1 0 1 0 1
8
0 1 0 1 1 0 0 1
4
0 1 1 0
8
1 0 1 0 1 0 1 0
8
1 0 0 1 0 1 0 1
8
0.3888735370050544 0.6111264629949457 0.4746825199434555 0.5253174800565444 0.6216339162429669 0.3783660837570332 0.0935702313089916 0.9064297686910084
8
0 1 1 0 0 1 0 1
8
1 0 0 1 1 0 0 1
8
1 0 0 1 1 0 0 1
8
0.42786339937977763 0.5721366006202224 0.3947554183845418 0.6052445816154581 0.6342950865594478 0.36570491344055234 0.18358506506912187 0.8164149349308781
8
1 0 0 1 1 0 1 0
8
1 0 0 1 1 0 1 0
8
0 1 0 1 1 0 1 0
8
0 1 1 0 0 1 0 1
8
1 0 0 1 0 1 0 1
8
0 1 1 0 0 1 1 0
8
1 0 0 1 0 1 1 0
8
0 1 0 1 1 0 1 0
8
0 1 0 1 0 1 1 0
8
0.5688360238970332 0.43116397610296675 0.5056977830145273 0.4943022169854727 0.16247833562267436 0.8375216643773257 0.6419164854638628 0.3580835145361371
8
1 0 0 1 0 1 1 0
8
0 1 1 0 1 0 0 1
8
1 0 0 1 1 0 1 0
8
0 1 0 1 1 0 1 0
8
1 0 1 0 0 1 1 0
8
0 1 0 1 0 1 0 1
8
1 0 1 0 1 0 0 1
4
0 1 1 0
8
0 1 1 0 0 1 0 1
8
0 1 1 0 1 0 0 1
8
0 1 0 1 0 1 1 0
8
1 0 1 0 0 1 1 0
8
0 1 1 0 0 1 1 0
8
0 1 1 0 0 1 1 0
8
1 0 1 0 1 0 1 0
8
1 0 1 0 0 1 1 0
8
0 1 1 0 1 0 0 1
8
1 0 0 1 1 0 1 0
8
1 0 1 0 1 0 1 0
8
1 0 0 1 0 1 1 0
8
0 1 1 0 0 1 0 1
8
0.8197190451211924 0.18028095487880755 0.7196532529044505 0.2803467470955495 0.5687705452083136 0.4312294547916864 0.5770755986833899 0.42292440131660997
8
0 1 1 0 1 0 0 1
8
0.29262831167795555 0.7073716883220444 0.4369487924216878 0.5630512075783122 0.5615770667593731 0.4384229332406269 0.6326952292465338 0.36730477075346624
8
0 1 0 1 1 0 0 1
8
1 0 0 1 0 1 1 0
8
0 1 0 1 0 1 1 0
8
1 0 0 1 1 0 1 0
8
1 0 0 1 0 1 1 0
8
1 0 0 1 0 1 1 0
8
0.2991901552413785 0.7008098447586215 0.18077170127210176 0.8192282987278983 0.4768400479483703 0.5231599520516297 0.137175420405401 0.862824579594599
8
1 0 0 1 0 1 0 1
4
1 0 0 1
8
0.34737508634914677 0.6526249136508532 0.7227322997673928 0.27726770023260716 0.866263797726183 0.133736202273817 0.4004062540238328 0.5995937459761672
8
1 0 0 1 1 0 1 0
8
1 0 0 1 1 0 0 1
8
0 1 0 1 1 0 0 1
8
0 1 0 1 0 1 0 1
8
1 0 0 1 0 1 1 0
8
0.5048624348251628 0.49513756517483726 0.8071458923880127 0.19285410761198732 0.34763656439939233 0.6523634356006076 0.40229785254318284 0.5977021474568172
8
0 1 1 0 0 1 1 0
8
0 1 1 0 1 0 1 0
8
1 0 1 0 0 1 1 0
8
1 0 1 0 1 0 0 1
8
0.8751807750608189 0.12481922493918111 0.08997548820752628 0.9100245117924737 0.120182361643391 0.879817638356609 0.28787864949031416 0.7121213505096858
8
1 0 0 1 0 1 0 1
8
1 0 1 0 1 0 0 1
8
0.8710151546592881 0.12898484534071192 0.596981349749654 0.403018650250346 0.07517074980883584 0.9248292501911641 0.2910466841925981 0.7089533158074017
8
0 1 1 0 0 1 0 1
8
1 0 0 1 0 1 1 0
8
0 1 1 0 1 0 1 0
8
1 0 0 1 0 1 0 1
8
1 0 1 0 0 1 1 0
8
0 1 1 0 0 1 0 1
8
0 1 1 0 1 0 1 0
8
0 1 1 0 0 1 1 0
8
0 1 1 0 0 1 1 0
4
0 1 0 1
8
0 1 1 0 1 0 0 1
8
0 1 0 1 0 1 1 0
8
1 0 0 1 0 1 1 0
8
1 0 1 0 1 0 1 0
8
0.08281470121273736 0.9171852987872626 0.45198994502223033 0.5480100549777697 0.4976870227056195 0.5023129772943805 0.45031234373804796 0.5496876562619519
8
0 1 1 0 1 0 0 1
8
0.6434474452220258 0.3565525547779741 0.4808609572777294 0.5191390427222706 0.8434211874553572 0.1565788125446428 0.38238444300822316 0.6176155569917768
8
1 0 1 0 1 0 1 0
8
0 1 0 1 1 0 1 0
8
0 1 1 0 0 1 0 1
8
0 1 1 0 0 1 1 0
8
0 1 0 1 0 1 0 1
8
0 1 1 0 1 0 1 0
8
0 1 1 0 0 1 0 1
8
0 1 0 1 1 0 0 1
8
1 0 1 0 0 1 1 0
8
1 0 1 0 0 1 0 1
8
1 0 1 0 0 1 0 1
8
0 1 1 0 0 1 0 1
8
0.4963958795156302 0.5036041204843699 0.41250395911576837 0.5874960408842316 0.5426219987059113 0.4573780012940886 0.3058795228410253 0.6941204771589746
8
1 0 1 0 0 1 1 0
8
0 1 1 0 1 0 1 0
8
1 0 1 0 0 1 0 1
8
1 0 0 1 0 1 0 1
4
1 0 1 0
8
0 1 1 0 0 1 0 1
8
1 0 0 1 0 1 0 1
8
0.8242774615232662 0.1757225384767338 0.2566451139343103 0.7433548860656897 0.3146591261445612 0.6853408738554388 0.7223782398178287 0.2776217601821714
8
0.7259797867023515 0.27402021329764853 0.4102101027476439 0.5897898972523561 0.5058365428873621 0.49416345711263787 0.09694246193702466 0.9030575380629754
8
0 1 1 0 1 0 1 0
8
1 0 1 0 0 1 1 0
8
0 1 1 0 1 0 1 0
8
0 1 0 1 1 0 0 1
8
0 1 0 1 0 1 1 0
8
1 0 1 0 1 0 1 0
8
1 0 0 1 1 0 0 1
8
0.9393843021415245 0.060615697858475544 0.4421808848339411 0.557819115166059 0.5361405930860544 0.46385940691394556 0.4458724978993573 0.5541275021006428
8
0 1 0 1 1 0 1 0
8
0.3066663045284727 0.6933336954715273 0.9276323811698861 0.07236761883011389 0.14791064771733575 0.8520893522826642 0.24964074829327576 0.7503592517067242
8
0 1 0 1 0 1 0 1
8
0 1 1 0 0 1 0 1
8
0 1 1 0 1 0 0 1
8
1 0 1 0 1 0 1 0
8
0.7306772127575755 0.2693227872424246 0.5711263513474776 0.4288736486525224 0.30569271386240443 0.6943072861375955 0.1207511684651993 0.8792488315348007
8
1 0 1 0 1 0 1 0
8
0 1 1 0 1 0 0 1
8
0.5917222298586954 0.4082777701413045 0.2802102825051235 0.7197897174948765 0.6106983458518068 0.38930165414819323 0.4650905151162589 0.5349094848837411
8
0 1 1 0 1 0 0 1
8
1 0 1 0 1 0 1 0
4
1 0 0 1
8
0 1 1 0 1 0 0 1
8
0 1 1 0 0 1 0 1
8
0 1 1 0 1 0 1 0
8
1 0 1 0 1 0 1 0
8
0 1 0 1 1 0 1 0
8
1 0 1 0 0 1 1 0
8
0 1 0 1 0 1 1 0
8
0 1 0 1 1 0 0 1
8
0 1 0 1 1 0 0 1
8
0 1 0 1 1 0 1 0
8
0 1 0 1 0 1 1 0
8
0.3780419222573892 0.6219580777426108 0.4156384209703523 0.5843615790296476 0.16996405051317873 0.8300359494868212 0.003922968690935183 0.9960770313090648
8
1 0 1 0 1 0 0 1
8
0 1 0 1 1 0 1 0
8
0 1 0 1 0 1 1 0
8
1 0 0 1 1 0 0 1
8
1 0 0 1 1 0 0 1
8
1 0 0 1 0 1 0 1
8
1 0 0 1 0 1 0 1
8
1 0 1 0 0 1 1 0
8
1 0 1 0 0 1 1 0
8
0 1 1 0 0 1 0 1
8
0 1 0 1 0 1 1 0
8
0 1 0 1 1 0 1 0
4
1 0 1 0
8
1 0 0 1 1 0 1 0
8
0.15521005065394333 0.8447899493460567 0.3730277748052676 0.6269722251947324 0.47839869314513817 0.5216013068548618 0.31940708676143625 0.6805929132385637
8
0 1 0 1 0 1 0 1
8
1 0 1 0 0 1 1 0
8
1 0 0 1 1 0 1 0
8
0 1 0 1 1 0 0 1
8
0.7927653555256806 0.20723464447431936 0.9492847165324309 0.05071528346756913 0.23412938189049595 0.765870618109504 0.79111514820604 0.2088848517939599
8
1 0 0 1 1 0 0 1
8
1 0 0 1 0 1 0 1
8
0 1 1 0 1 0 1 0
8
0.6217639263162072 0.37823607368379286 0.5313591813703897 0.4686408186296102 0.6191703777305363 0.38082962226946365 0.12260606156607409 0.8773939384339259
8
1 0 0 1 1 0 1 0
8
0 1 0 1 1 0 0 1
8
1 0 1 0 1 0 0 1
8
1 0 0 1 1 0 1 0
8
0 1 0 1 1 0 0 1
8
1 0 1 0 1 0 0 1
8
0 1 0 1 0 1 1 0
8
0 1 0 1 1 0 1 0
8
0 1 0 1 0 1 1 0
8
0 1 0 1 0 1 0 1
8
0.3985461897771466 0.6014538102228534 0.6330845290193056 0.36691547098069444 0.2971381139453098 0.7028618860546902 0.4475238956882565 0.5524761043117435
8
0.6237566096640472 0.3762433903359527 0.445937759744424 0.5540622402555759 0.3785688540900088 0.6214311459099913 0.25866701792891766 0.7413329820710823
8
1 0 0 1 1 0 0 1
4
0 1 0 1
8
1 0 1 0 1 0 1 0
8
0 1 1 0 1 0 0 1
8
0 1 1 0 0 1 0 1
8
0 1 1 0 0 1 0 1
8
1 0 1 0 1 0 1 0
8
1 0 1 0 0 1 0 1
8
1 0 1 0 0 1 1 0
8
1 0 0 1 1 0 1 0
8
0 1 1 0 0 1 0 1
8
1 0 1 0 0 1 1 0
8
0 1 0 1 1 0 1 0
8
1 0 1 0 1 0 1 0
8
0 1 0 1 0 1 1 0
8
1 0 1 0 0 1 1 0
8
0 1 1 0 0 1 0 1
8
1 0 0 1 1 0 1 0
8
1 0 0 1 1 0 0 1
8
0.5120369864489881 0.4879630135510119 0.4444375635305396 0.5555624364694604 0.8915894920524757 0.10841050794752427 0.6642286783992343 0.3357713216007657
8
1 0 0 1 1 0 1 0
8
1 0 0 1 0 1 1 0
8
0 1 1 0 1 0 0 1
8
1 0 1 0 1 0 1 0
8
0 1 0 1 1 0 1 0
8
1 0 1 0 0 1 1 0
4
1 0 0 1
8
1 0 0 1 1 0 1 0
8
0 1 0 1 0 1 0 1
8
1 0 1 0 0 1 1 0
8
0.5544353085074142 0.4455646914925858 0.9320257762262492 0.06797422377375084 0.5092557796255344 0.49074422037446563 0.5146333256987039 0.48536667430129615
8
1 0 1 0 0 1 1 0
8
1 0 0 1 1 0 0 1
8
0 1 1 0 0 1 0 1
8
0 1 0 1 1 0 0 1
8
1 0 0 1 1 0 0 1
8
0 1 1 0 0 1 0 1
8
0 1 0 1 1 0 0 1
8
1 0 1 0 1 0 1 0
8
1 0 0 1 0 1 1 0
8
0 1 1 0 1 0 0 1
8
0 1 0 1 0 1 0 1
8
1 0 0 1 0 1 1 0
8
0 1 1 0 0 1 1 0
8
1 0 1 0 1 0 1 0
8
1 0 0 1 0 1 1 0
8
1 0 1 0 0 1 0 1
8
1 0 0 1 0 1 1 0
8
1 0 1 0 1 0 1 0
8
1 0 1 0 1 0 0 1
8
0 1 1 0 1 0 1 0
4
1 0 0 1
4
0 1 0 1
4
1 0 1 0
4
1 0 1 0
4
0.8277580402876937 0.1722419597123063 0.49440722394492165 0.5055927760550784
4
1 0 0 1
4
0 1 1 0
4
1 0 1 0
4
0.26722850056996 0.7327714994300399 0.8666960930276763 0.13330390697232383
4
1 0 1 0
4
1 0 1 0
4
0 1 1 0
4
0 1 0 1
4
1 0 1 0
4
0 1 1 0
4
1 0 1 0
4
0 1 0 1
4
1 0 0 1
4
0 1 1 0
4
1 0 1 0
4
0 1 1 0
4
1 0 0 1
4
0.7575748444902322 0.2424251555097678 0.6488235721089642 0.35117642789103576
4
1 0 0 1
4
0 1 0 1
2
1 0
